c 3 - XORSAT
p cnf 50 200
7 29 31 0
-7 -29 31 0
-7 29 -31 0
7 -29 -31 0
5 7 12 0
-5 -7 12 0
-5 7 -12 0
5 -7 -12 0
4 22 44 0
-4 -22 44 0
-4 22 -44 0
4 -22 -44 0
-4 -41 -42 0
-4 41 42 0
4 -41 42 0
4 41 -42 0
15 45 47 0
-15 -45 47 0
-15 45 -47 0
15 -45 -47 0
-12 -23 -24 0
-12 23 24 0
12 -23 24 0
12 23 -24 0
2 42 44 0
-2 -42 44 0
-2 42 -44 0
2 -42 -44 0
-35 -37 -40 0
-35 37 40 0
35 -37 40 0
35 37 -40 0
-7 -9 -22 0
-7 9 22 0
7 -9 22 0
7 9 -22 0
-16 -46 -43 0
-16 46 43 0
16 -46 43 0
16 46 -43 0
-2 -4 -13 0
-2 4 13 0
2 -4 13 0
2 4 -13 0
26 30 43 0
-26 -30 43 0
-26 30 -43 0
26 -30 -43 0
-14 -34 -42 0
-14 34 42 0
14 -34 42 0
14 34 -42 0
8 48 50 0
-8 -48 50 0
-8 48 -50 0
8 -48 -50 0
-10 -15 -19 0
-10 15 19 0
10 -15 19 0
10 15 -19 0
10 11 16 0
-10 -11 16 0
-10 11 -16 0
10 -11 -16 0
-8 -33 -20 0
-8 33 20 0
8 -33 20 0
8 33 -20 0
-18 -34 -37 0
-18 34 37 0
18 -34 37 0
18 34 -37 0
-15 -17 -33 0
-15 17 33 0
15 -17 33 0
15 17 -33 0
38 49 50 0
-38 -49 50 0
-38 49 -50 0
38 -49 -50 0
-23 -25 -28 0
-23 25 28 0
23 -25 28 0
23 25 -28 0
-5 -31 -32 0
-5 31 32 0
5 -31 32 0
5 31 -32 0
-14 -17 -26 0
-14 17 26 0
14 -17 26 0
14 17 -26 0
-3 -31 -32 0
-3 31 32 0
3 -31 32 0
3 31 -32 0
26 35 49 0
-26 -35 49 0
-26 35 -49 0
26 -35 -49 0
34 41 46 0
-34 -41 46 0
-34 41 -46 0
34 -41 -46 0
-1 -39 -47 0
-1 39 47 0
1 -39 47 0
1 39 -47 0
-5 -6 -20 0
-5 6 20 0
5 -6 20 0
5 6 -20 0
-3 -38 -41 0
-3 38 41 0
3 -38 41 0
3 38 -41 0
-2 -6 -27 0
-2 6 27 0
2 -6 27 0
2 6 -27 0
21 23 10 0
-21 -23 10 0
-21 23 -10 0
21 -23 -10 0
8 20 40 0
-8 -20 40 0
-8 20 -40 0
8 -20 -40 0
-30 -48 -50 0
-30 48 50 0
30 -48 50 0
30 48 -50 0
-21 -28 -44 0
-21 28 44 0
21 -28 44 0
21 28 -44 0
3 39 43 0
-3 -39 43 0
-3 39 -43 0
3 -39 -43 0
-18 -19 -35 0
-18 19 35 0
18 -19 35 0
18 19 -35 0
27 40 49 0
-27 -40 49 0
-27 40 -49 0
27 -40 -49 0
-1 -9 -14 0
-1 9 14 0
1 -9 14 0
1 9 -14 0
-33 -45 -47 0
-33 45 47 0
33 -45 47 0
33 45 -47 0
-21 -24 -27 0
-21 24 27 0
21 -24 27 0
21 24 -27 0
-22 -29 -38 0
-22 29 38 0
22 -29 38 0
22 29 -38 0
16 19 37 0
-16 -19 37 0
-16 19 -37 0
16 -19 -37 0
-13 -36 -46 0
-13 36 46 0
13 -36 46 0
13 36 -46 0
17 18 30 0
-17 -18 30 0
-17 18 -30 0
17 -18 -30 0
-1 -9 -12 0
-1 9 12 0
1 -9 12 0
1 9 -12 0
-29 -36 -39 0
-29 36 39 0
29 -36 39 0
29 36 -39 0
-6 -11 -36 0
-6 11 36 0
6 -11 36 0
6 11 -36 0
-24 -25 -32 0
-24 25 32 0
24 -25 32 0
24 25 -32 0
-28 -45 -48 0
-28 45 48 0
28 -45 48 0
28 45 -48 0
-11 -13 -25 0
-11 13 25 0
11 -13 25 0
11 13 -25 0
